\ Model OBJROW
\ LP format - for model browsing. Use MPS format to capture full model detail.
Minimize
  X0 + X1 + X2 + X3 + X4 + X5 + X6 + X7 + X8 + X9 + X10 + X11 + X12 + X13
   + X14 + X15 + X16 + X17 + X18 + X19 + X20 + X21 + X22 + X23 + X24 + X25
   + X26 + X27 + X28 + X29 + X30 + X31 + X32 + X33 + X34 + X35 + X36 + X37
   + X38 + X39 + X40 + X41 + X42 + X43 + X44 + X45 + X46 + X47 + X48 + X49
   + X50 + X51 + X52 + X53 + X54 + X55 + X56 + X57 + X58 + X59 + X60 + X61
   + X62 + X63 + X64 + X65 + X66 + X67 + X68 + X69 + X70 + X71 + X72 + X73
   + X74 + X75 + X76 + X77 + X78 + X79 + X80 + X81 + X82 + X83 + X84 + X85
   + X86 + X87 + X88 + X89 + X90 + X91 + X92 + X93 + X94 + X95 + X96 + X97
   + X98 + X99 + X100 + X101 + X102 + X103 + X104 + X105 + X106 + X107
   + X108 + X109 + X110 + X111 + X112 + X113 + X114 + X115 + X116 + X117
   + X118 + X119 + X120 + X121 + X122 + X123 + X124 + X125 + X126 + X127
   + X128 + X129 + X130 + X131 + X132 + X133 + X134 + X135 + X136 + X137
   + X138 + X139 + X140 + X141 + X142 + X143 + X144 + X145 + X146 + X147
   + X148 + X149 + X150 + X151 + X152 + X153 + X154 + X155 + X156 + X157
   + X158 + X159 + X160 + X161 + X162 + X163 + X164 + X165 + X166 + X167
   + X168 + X169 + X170 + X171 + X172 + X173 + X174 + X175 + X176 + X177
   + X178 + X179 + X180 + X181 + X182 + X183 + X184 + X185 + X186 + X187
   + X188 + X189 + X190 + X191 + X192 + X193 + X194 + X195 + X196 + X197
   + X198 + X199 + X200 + X201 + X202 + X203 + X204 + X205 + X206 + X207
   + X208 + X209 + X210 + X211 + X212 + X213 + X214 + X215 + X216 + X217
   + X218 + X219 + X220 + X221 + X222 + X223 + X224 + X225 + X226 + X227
   + X228 + X229 + X230 + X231 + X232 + X233 + X234 + X235 + X236 + X237
   + X238 + X239 + X240 + X241 + X242 + X243 + X244 + X245 + X246 + X247
   + X248 + X249 + X250 + X251 + X252 + X253 + X254 + X255 + X256 + X257
   + X258 + X259 + X260 + X261 + X262 + X263 + X264 + X265 + X266 + X267
   + X268 + X269 + X270 + X271 + X272 + X273 + X274 + X275 + X276 + X277
   + X278 + X279 + X280 + X281 + X282 + X283 + X284 + X285 + X286 + X287
Subject To
 R0: X0 + X1 + X2 + X3 + X6 + X9 + X18 + X36 + X72 + X144 >= 1
 R1: X0 + X1 + X2 + X4 + X7 + X10 + X19 + X37 + X73 + X145 >= 1
 R2: X0 + X1 + X2 + X5 + X8 + X11 + X20 + X38 + X74 + X146 >= 1
 R3: X0 + X3 + X4 + X5 + X6 + X12 + X21 + X39 + X75 + X147 >= 1
 R4: X1 + X3 + X4 + X5 + X7 + X13 + X22 + X40 + X76 + X148 >= 1
 R5: X2 + X3 + X4 + X5 + X8 + X14 + X23 + X41 + X77 + X149 >= 1
 R6: X0 + X3 + X6 + X7 + X8 + X15 + X24 + X42 + X78 + X150 >= 1
 R7: X1 + X4 + X6 + X7 + X8 + X16 + X25 + X43 + X79 + X151 >= 1
 R8: X2 + X5 + X6 + X7 + X8 + X17 + X26 + X44 + X80 + X152 >= 1
 R9: X0 + X9 + X10 + X11 + X12 + X15 + X27 + X45 + X81 + X153 >= 1
 R10: X1 + X9 + X10 + X11 + X13 + X16 + X28 + X46 + X82 + X154 >= 1
 R11: X2 + X9 + X10 + X11 + X14 + X17 + X29 + X47 + X83 + X155 >= 1
 R12: X3 + X9 + X12 + X13 + X14 + X15 + X30 + X48 + X84 + X156 >= 1
 R13: X4 + X10 + X12 + X13 + X14 + X16 + X31 + X49 + X85 + X157 >= 1
 R14: X5 + X11 + X12 + X13 + X14 + X17 + X32 + X50 + X86 + X158 >= 1
 R15: X6 + X9 + X12 + X15 + X16 + X17 + X33 + X51 + X87 + X159 >= 1
 R16: X7 + X10 + X13 + X15 + X16 + X17 + X34 + X52 + X88 + X160 >= 1
 R17: X8 + X11 + X14 + X15 + X16 + X17 + X35 + X53 + X89 + X161 >= 1
 R18: X0 + X18 + X19 + X20 + X21 + X24 + X27 + X54 + X90 + X162 >= 1
 R19: X1 + X18 + X19 + X20 + X22 + X25 + X28 + X55 + X91 + X163 >= 1
 R20: X2 + X18 + X19 + X20 + X23 + X26 + X29 + X56 + X92 + X164 >= 1
 R21: X3 + X18 + X21 + X22 + X23 + X24 + X30 + X57 + X93 + X165 >= 1
 R22: X4 + X19 + X21 + X22 + X23 + X25 + X31 + X58 + X94 + X166 >= 1
 R23: X5 + X20 + X21 + X22 + X23 + X26 + X32 + X59 + X95 + X167 >= 1
 R24: X6 + X18 + X21 + X24 + X25 + X26 + X33 + X60 + X96 + X168 >= 1
 R25: X7 + X19 + X22 + X24 + X25 + X26 + X34 + X61 + X97 + X169 >= 1
 R26: X8 + X20 + X23 + X24 + X25 + X26 + X35 + X62 + X98 + X170 >= 1
 R27: X9 + X18 + X27 + X28 + X29 + X30 + X33 + X63 + X99 + X171 >= 1
 R28: X10 + X19 + X27 + X28 + X29 + X31 + X34 + X64 + X100 + X172 >= 1
 R29: X11 + X20 + X27 + X28 + X29 + X32 + X35 + X65 + X101 + X173 >= 1
 R30: X12 + X21 + X27 + X30 + X31 + X32 + X33 + X66 + X102 + X174 >= 1
 R31: X13 + X22 + X28 + X30 + X31 + X32 + X34 + X67 + X103 + X175 >= 1
 R32: X14 + X23 + X29 + X30 + X31 + X32 + X35 + X68 + X104 + X176 >= 1
 R33: X15 + X24 + X27 + X30 + X33 + X34 + X35 + X69 + X105 + X177 >= 1
 R34: X16 + X25 + X28 + X31 + X33 + X34 + X35 + X70 + X106 + X178 >= 1
 R35: X17 + X26 + X29 + X32 + X33 + X34 + X35 + X71 + X107 + X179 >= 1
 R36: X0 + X36 + X37 + X38 + X39 + X42 + X45 + X54 + X108 + X180 >= 1
 R37: X1 + X36 + X37 + X38 + X40 + X43 + X46 + X55 + X109 + X181 >= 1
 R38: X2 + X36 + X37 + X38 + X41 + X44 + X47 + X56 + X110 + X182 >= 1
 R39: X3 + X36 + X39 + X40 + X41 + X42 + X48 + X57 + X111 + X183 >= 1
 R40: X4 + X37 + X39 + X40 + X41 + X43 + X49 + X58 + X112 + X184 >= 1
 R41: X5 + X38 + X39 + X40 + X41 + X44 + X50 + X59 + X113 + X185 >= 1
 R42: X6 + X36 + X39 + X42 + X43 + X44 + X51 + X60 + X114 + X186 >= 1
 R43: X7 + X37 + X40 + X42 + X43 + X44 + X52 + X61 + X115 + X187 >= 1
 R44: X8 + X38 + X41 + X42 + X43 + X44 + X53 + X62 + X116 + X188 >= 1
 R45: X9 + X36 + X45 + X46 + X47 + X48 + X51 + X63 + X117 + X189 >= 1
 R46: X10 + X37 + X45 + X46 + X47 + X49 + X52 + X64 + X118 + X190 >= 1
 R47: X11 + X38 + X45 + X46 + X47 + X50 + X53 + X65 + X119 + X191 >= 1
 R48: X12 + X39 + X45 + X48 + X49 + X50 + X51 + X66 + X120 + X192 >= 1
 R49: X13 + X40 + X46 + X48 + X49 + X50 + X52 + X67 + X121 + X193 >= 1
 R50: X14 + X41 + X47 + X48 + X49 + X50 + X53 + X68 + X122 + X194 >= 1
 R51: X15 + X42 + X45 + X48 + X51 + X52 + X53 + X69 + X123 + X195 >= 1
 R52: X16 + X43 + X46 + X49 + X51 + X52 + X53 + X70 + X124 + X196 >= 1
 R53: X17 + X44 + X47 + X50 + X51 + X52 + X53 + X71 + X125 + X197 >= 1
 R54: X18 + X36 + X54 + X55 + X56 + X57 + X60 + X63 + X126 + X198 >= 1
 R55: X19 + X37 + X54 + X55 + X56 + X58 + X61 + X64 + X127 + X199 >= 1
 R56: X20 + X38 + X54 + X55 + X56 + X59 + X62 + X65 + X128 + X200 >= 1
 R57: X21 + X39 + X54 + X57 + X58 + X59 + X60 + X66 + X129 + X201 >= 1
 R58: X22 + X40 + X55 + X57 + X58 + X59 + X61 + X67 + X130 + X202 >= 1
 R59: X23 + X41 + X56 + X57 + X58 + X59 + X62 + X68 + X131 + X203 >= 1
 R60: X24 + X42 + X54 + X57 + X60 + X61 + X62 + X69 + X132 + X204 >= 1
 R61: X25 + X43 + X55 + X58 + X60 + X61 + X62 + X70 + X133 + X205 >= 1
 R62: X26 + X44 + X56 + X59 + X60 + X61 + X62 + X71 + X134 + X206 >= 1
 R63: X27 + X45 + X54 + X63 + X64 + X65 + X66 + X69 + X135 + X207 >= 1
 R64: X28 + X46 + X55 + X63 + X64 + X65 + X67 + X70 + X136 + X208 >= 1
 R65: X29 + X47 + X56 + X63 + X64 + X65 + X68 + X71 + X137 + X209 >= 1
 R66: X30 + X48 + X57 + X63 + X66 + X67 + X68 + X69 + X138 + X210 >= 1
 R67: X31 + X49 + X58 + X64 + X66 + X67 + X68 + X70 + X139 + X211 >= 1
 R68: X32 + X50 + X59 + X65 + X66 + X67 + X68 + X71 + X140 + X212 >= 1
 R69: X33 + X51 + X60 + X63 + X66 + X69 + X70 + X71 + X141 + X213 >= 1
 R70: X34 + X52 + X61 + X64 + X67 + X69 + X70 + X71 + X142 + X214 >= 1
 R71: X35 + X53 + X62 + X65 + X68 + X69 + X70 + X71 + X143 + X215 >= 1
 R72: X0 + X72 + X73 + X74 + X75 + X78 + X81 + X90 + X108 + X216 >= 1
 R73: X1 + X72 + X73 + X74 + X76 + X79 + X82 + X91 + X109 + X217 >= 1
 R74: X2 + X72 + X73 + X74 + X77 + X80 + X83 + X92 + X110 + X218 >= 1
 R75: X3 + X72 + X75 + X76 + X77 + X78 + X84 + X93 + X111 + X219 >= 1
 R76: X4 + X73 + X75 + X76 + X77 + X79 + X85 + X94 + X112 + X220 >= 1
 R77: X5 + X74 + X75 + X76 + X77 + X80 + X86 + X95 + X113 + X221 >= 1
 R78: X6 + X72 + X75 + X78 + X79 + X80 + X87 + X96 + X114 + X222 >= 1
 R79: X7 + X73 + X76 + X78 + X79 + X80 + X88 + X97 + X115 + X223 >= 1
 R80: X8 + X74 + X77 + X78 + X79 + X80 + X89 + X98 + X116 + X224 >= 1
 R81: X9 + X72 + X81 + X82 + X83 + X84 + X87 + X99 + X117 + X225 >= 1
 R82: X10 + X73 + X81 + X82 + X83 + X85 + X88 + X100 + X118 + X226 >= 1
 R83: X11 + X74 + X81 + X82 + X83 + X86 + X89 + X101 + X119 + X227 >= 1
 R84: X12 + X75 + X81 + X84 + X85 + X86 + X87 + X102 + X120 + X228 >= 1
 R85: X13 + X76 + X82 + X84 + X85 + X86 + X88 + X103 + X121 + X229 >= 1
 R86: X14 + X77 + X83 + X84 + X85 + X86 + X89 + X104 + X122 + X230 >= 1
 R87: X15 + X78 + X81 + X84 + X87 + X88 + X89 + X105 + X123 + X231 >= 1
 R88: X16 + X79 + X82 + X85 + X87 + X88 + X89 + X106 + X124 + X232 >= 1
 R89: X17 + X80 + X83 + X86 + X87 + X88 + X89 + X107 + X125 + X233 >= 1
 R90: X18 + X72 + X90 + X91 + X92 + X93 + X96 + X99 + X126 + X234 >= 1
 R91: X19 + X73 + X90 + X91 + X92 + X94 + X97 + X100 + X127 + X235 >= 1
 R92: X20 + X74 + X90 + X91 + X92 + X95 + X98 + X101 + X128 + X236 >= 1
 R93: X21 + X75 + X90 + X93 + X94 + X95 + X96 + X102 + X129 + X237 >= 1
 R94: X22 + X76 + X91 + X93 + X94 + X95 + X97 + X103 + X130 + X238 >= 1
 R95: X23 + X77 + X92 + X93 + X94 + X95 + X98 + X104 + X131 + X239 >= 1
 R96: X24 + X78 + X90 + X93 + X96 + X97 + X98 + X105 + X132 + X240 >= 1
 R97: X25 + X79 + X91 + X94 + X96 + X97 + X98 + X106 + X133 + X241 >= 1
 R98: X26 + X80 + X92 + X95 + X96 + X97 + X98 + X107 + X134 + X242 >= 1
 R99: X27 + X81 + X90 + X99 + X100 + X101 + X102 + X105 + X135 + X243 >= 1
 R100: X28 + X82 + X91 + X99 + X100 + X101 + X103 + X106 + X136 + X244
   >= 1
 R101: X29 + X83 + X92 + X99 + X100 + X101 + X104 + X107 + X137 + X245
   >= 1
 R102: X30 + X84 + X93 + X99 + X102 + X103 + X104 + X105 + X138 + X246
   >= 1
 R103: X31 + X85 + X94 + X100 + X102 + X103 + X104 + X106 + X139 + X247
   >= 1
 R104: X32 + X86 + X95 + X101 + X102 + X103 + X104 + X107 + X140 + X248
   >= 1
 R105: X33 + X87 + X96 + X99 + X102 + X105 + X106 + X107 + X141 + X249
   >= 1
 R106: X34 + X88 + X97 + X100 + X103 + X105 + X106 + X107 + X142 + X250
   >= 1
 R107: X35 + X89 + X98 + X101 + X104 + X105 + X106 + X107 + X143 + X251
   >= 1
 R108: X36 + X72 + X108 + X109 + X110 + X111 + X114 + X117 + X126 + X252
   >= 1
 R109: X37 + X73 + X108 + X109 + X110 + X112 + X115 + X118 + X127 + X253
   >= 1
 R110: X38 + X74 + X108 + X109 + X110 + X113 + X116 + X119 + X128 + X254
   >= 1
 R111: X39 + X75 + X108 + X111 + X112 + X113 + X114 + X120 + X129 + X255
   >= 1
 R112: X40 + X76 + X109 + X111 + X112 + X113 + X115 + X121 + X130 + X256
   >= 1
 R113: X41 + X77 + X110 + X111 + X112 + X113 + X116 + X122 + X131 + X257
   >= 1
 R114: X42 + X78 + X108 + X111 + X114 + X115 + X116 + X123 + X132 + X258
   >= 1
 R115: X43 + X79 + X109 + X112 + X114 + X115 + X116 + X124 + X133 + X259
   >= 1
 R116: X44 + X80 + X110 + X113 + X114 + X115 + X116 + X125 + X134 + X260
   >= 1
 R117: X45 + X81 + X108 + X117 + X118 + X119 + X120 + X123 + X135 + X261
   >= 1
 R118: X46 + X82 + X109 + X117 + X118 + X119 + X121 + X124 + X136 + X262
   >= 1
 R119: X47 + X83 + X110 + X117 + X118 + X119 + X122 + X125 + X137 + X263
   >= 1
 R120: X48 + X84 + X111 + X117 + X120 + X121 + X122 + X123 + X138 + X264
   >= 1
 R121: X49 + X85 + X112 + X118 + X120 + X121 + X122 + X124 + X139 + X265
   >= 1
 R122: X50 + X86 + X113 + X119 + X120 + X121 + X122 + X125 + X140 + X266
   >= 1
 R123: X51 + X87 + X114 + X117 + X120 + X123 + X124 + X125 + X141 + X267
   >= 1
 R124: X52 + X88 + X115 + X118 + X121 + X123 + X124 + X125 + X142 + X268
   >= 1
 R125: X53 + X89 + X116 + X119 + X122 + X123 + X124 + X125 + X143 + X269
   >= 1
 R126: X54 + X90 + X108 + X126 + X127 + X128 + X129 + X132 + X135 + X270
   >= 1
 R127: X55 + X91 + X109 + X126 + X127 + X128 + X130 + X133 + X136 + X271
   >= 1
 R128: X56 + X92 + X110 + X126 + X127 + X128 + X131 + X134 + X137 + X272
   >= 1
 R129: X57 + X93 + X111 + X126 + X129 + X130 + X131 + X132 + X138 + X273
   >= 1
 R130: X58 + X94 + X112 + X127 + X129 + X130 + X131 + X133 + X139 + X274
   >= 1
 R131: X59 + X95 + X113 + X128 + X129 + X130 + X131 + X134 + X140 + X275
   >= 1
 R132: X60 + X96 + X114 + X126 + X129 + X132 + X133 + X134 + X141 + X276
   >= 1
 R133: X61 + X97 + X115 + X127 + X130 + X132 + X133 + X134 + X142 + X277
   >= 1
 R134: X62 + X98 + X116 + X128 + X131 + X132 + X133 + X134 + X143 + X278
   >= 1
 R135: X63 + X99 + X117 + X126 + X135 + X136 + X137 + X138 + X141 + X279
   >= 1
 R136: X64 + X100 + X118 + X127 + X135 + X136 + X137 + X139 + X142 + X280
   >= 1
 R137: X65 + X101 + X119 + X128 + X135 + X136 + X137 + X140 + X143 + X281
   >= 1
 R138: X66 + X102 + X120 + X129 + X135 + X138 + X139 + X140 + X141 + X282
   >= 1
 R139: X67 + X103 + X121 + X130 + X136 + X138 + X139 + X140 + X142 + X283
   >= 1
 R140: X68 + X104 + X122 + X131 + X137 + X138 + X139 + X140 + X143 + X284
   >= 1
 R141: X69 + X105 + X123 + X132 + X135 + X138 + X141 + X142 + X143 + X285
   >= 1
 R142: X70 + X106 + X124 + X133 + X136 + X139 + X141 + X142 + X143 + X286
   >= 1
 R143: X71 + X107 + X125 + X134 + X137 + X140 + X141 + X142 + X143 + X287
   >= 1
 R144: X0 + X144 + X145 + X146 + X147 + X150 + X153 + X162 + X180 + X216
   >= 1
 R145: X1 + X144 + X145 + X146 + X148 + X151 + X154 + X163 + X181 + X217
   >= 1
 R146: X2 + X144 + X145 + X146 + X149 + X152 + X155 + X164 + X182 + X218
   >= 1
 R147: X3 + X144 + X147 + X148 + X149 + X150 + X156 + X165 + X183 + X219
   >= 1
 R148: X4 + X145 + X147 + X148 + X149 + X151 + X157 + X166 + X184 + X220
   >= 1
 R149: X5 + X146 + X147 + X148 + X149 + X152 + X158 + X167 + X185 + X221
   >= 1
 R150: X6 + X144 + X147 + X150 + X151 + X152 + X159 + X168 + X186 + X222
   >= 1
 R151: X7 + X145 + X148 + X150 + X151 + X152 + X160 + X169 + X187 + X223
   >= 1
 R152: X8 + X146 + X149 + X150 + X151 + X152 + X161 + X170 + X188 + X224
   >= 1
 R153: X9 + X144 + X153 + X154 + X155 + X156 + X159 + X171 + X189 + X225
   >= 1
 R154: X10 + X145 + X153 + X154 + X155 + X157 + X160 + X172 + X190 + X226
   >= 1
 R155: X11 + X146 + X153 + X154 + X155 + X158 + X161 + X173 + X191 + X227
   >= 1
 R156: X12 + X147 + X153 + X156 + X157 + X158 + X159 + X174 + X192 + X228
   >= 1
 R157: X13 + X148 + X154 + X156 + X157 + X158 + X160 + X175 + X193 + X229
   >= 1
 R158: X14 + X149 + X155 + X156 + X157 + X158 + X161 + X176 + X194 + X230
   >= 1
 R159: X15 + X150 + X153 + X156 + X159 + X160 + X161 + X177 + X195 + X231
   >= 1
 R160: X16 + X151 + X154 + X157 + X159 + X160 + X161 + X178 + X196 + X232
   >= 1
 R161: X17 + X152 + X155 + X158 + X159 + X160 + X161 + X179 + X197 + X233
   >= 1
 R162: X18 + X144 + X162 + X163 + X164 + X165 + X168 + X171 + X198 + X234
   >= 1
 R163: X19 + X145 + X162 + X163 + X164 + X166 + X169 + X172 + X199 + X235
   >= 1
 R164: X20 + X146 + X162 + X163 + X164 + X167 + X170 + X173 + X200 + X236
   >= 1
 R165: X21 + X147 + X162 + X165 + X166 + X167 + X168 + X174 + X201 + X237
   >= 1
 R166: X22 + X148 + X163 + X165 + X166 + X167 + X169 + X175 + X202 + X238
   >= 1
 R167: X23 + X149 + X164 + X165 + X166 + X167 + X170 + X176 + X203 + X239
   >= 1
 R168: X24 + X150 + X162 + X165 + X168 + X169 + X170 + X177 + X204 + X240
   >= 1
 R169: X25 + X151 + X163 + X166 + X168 + X169 + X170 + X178 + X205 + X241
   >= 1
 R170: X26 + X152 + X164 + X167 + X168 + X169 + X170 + X179 + X206 + X242
   >= 1
 R171: X27 + X153 + X162 + X171 + X172 + X173 + X174 + X177 + X207 + X243
   >= 1
 R172: X28 + X154 + X163 + X171 + X172 + X173 + X175 + X178 + X208 + X244
   >= 1
 R173: X29 + X155 + X164 + X171 + X172 + X173 + X176 + X179 + X209 + X245
   >= 1
 R174: X30 + X156 + X165 + X171 + X174 + X175 + X176 + X177 + X210 + X246
   >= 1
 R175: X31 + X157 + X166 + X172 + X174 + X175 + X176 + X178 + X211 + X247
   >= 1
 R176: X32 + X158 + X167 + X173 + X174 + X175 + X176 + X179 + X212 + X248
   >= 1
 R177: X33 + X159 + X168 + X171 + X174 + X177 + X178 + X179 + X213 + X249
   >= 1
 R178: X34 + X160 + X169 + X172 + X175 + X177 + X178 + X179 + X214 + X250
   >= 1
 R179: X35 + X161 + X170 + X173 + X176 + X177 + X178 + X179 + X215 + X251
   >= 1
 R180: X36 + X144 + X180 + X181 + X182 + X183 + X186 + X189 + X198 + X252
   >= 1
 R181: X37 + X145 + X180 + X181 + X182 + X184 + X187 + X190 + X199 + X253
   >= 1
 R182: X38 + X146 + X180 + X181 + X182 + X185 + X188 + X191 + X200 + X254
   >= 1
 R183: X39 + X147 + X180 + X183 + X184 + X185 + X186 + X192 + X201 + X255
   >= 1
 R184: X40 + X148 + X181 + X183 + X184 + X185 + X187 + X193 + X202 + X256
   >= 1
 R185: X41 + X149 + X182 + X183 + X184 + X185 + X188 + X194 + X203 + X257
   >= 1
 R186: X42 + X150 + X180 + X183 + X186 + X187 + X188 + X195 + X204 + X258
   >= 1
 R187: X43 + X151 + X181 + X184 + X186 + X187 + X188 + X196 + X205 + X259
   >= 1
 R188: X44 + X152 + X182 + X185 + X186 + X187 + X188 + X197 + X206 + X260
   >= 1
 R189: X45 + X153 + X180 + X189 + X190 + X191 + X192 + X195 + X207 + X261
   >= 1
 R190: X46 + X154 + X181 + X189 + X190 + X191 + X193 + X196 + X208 + X262
   >= 1
 R191: X47 + X155 + X182 + X189 + X190 + X191 + X194 + X197 + X209 + X263
   >= 1
 R192: X48 + X156 + X183 + X189 + X192 + X193 + X194 + X195 + X210 + X264
   >= 1
 R193: X49 + X157 + X184 + X190 + X192 + X193 + X194 + X196 + X211 + X265
   >= 1
 R194: X50 + X158 + X185 + X191 + X192 + X193 + X194 + X197 + X212 + X266
   >= 1
 R195: X51 + X159 + X186 + X189 + X192 + X195 + X196 + X197 + X213 + X267
   >= 1
 R196: X52 + X160 + X187 + X190 + X193 + X195 + X196 + X197 + X214 + X268
   >= 1
 R197: X53 + X161 + X188 + X191 + X194 + X195 + X196 + X197 + X215 + X269
   >= 1
 R198: X54 + X162 + X180 + X198 + X199 + X200 + X201 + X204 + X207 + X270
   >= 1
 R199: X55 + X163 + X181 + X198 + X199 + X200 + X202 + X205 + X208 + X271
   >= 1
 R200: X56 + X164 + X182 + X198 + X199 + X200 + X203 + X206 + X209 + X272
   >= 1
 R201: X57 + X165 + X183 + X198 + X201 + X202 + X203 + X204 + X210 + X273
   >= 1
 R202: X58 + X166 + X184 + X199 + X201 + X202 + X203 + X205 + X211 + X274
   >= 1
 R203: X59 + X167 + X185 + X200 + X201 + X202 + X203 + X206 + X212 + X275
   >= 1
 R204: X60 + X168 + X186 + X198 + X201 + X204 + X205 + X206 + X213 + X276
   >= 1
 R205: X61 + X169 + X187 + X199 + X202 + X204 + X205 + X206 + X214 + X277
   >= 1
 R206: X62 + X170 + X188 + X200 + X203 + X204 + X205 + X206 + X215 + X278
   >= 1
 R207: X63 + X171 + X189 + X198 + X207 + X208 + X209 + X210 + X213 + X279
   >= 1
 R208: X64 + X172 + X190 + X199 + X207 + X208 + X209 + X211 + X214 + X280
   >= 1
 R209: X65 + X173 + X191 + X200 + X207 + X208 + X209 + X212 + X215 + X281
   >= 1
 R210: X66 + X174 + X192 + X201 + X207 + X210 + X211 + X212 + X213 + X282
   >= 1
 R211: X67 + X175 + X193 + X202 + X208 + X210 + X211 + X212 + X214 + X283
   >= 1
 R212: X68 + X176 + X194 + X203 + X209 + X210 + X211 + X212 + X215 + X284
   >= 1
 R213: X69 + X177 + X195 + X204 + X207 + X210 + X213 + X214 + X215 + X285
   >= 1
 R214: X70 + X178 + X196 + X205 + X208 + X211 + X213 + X214 + X215 + X286
   >= 1
 R215: X71 + X179 + X197 + X206 + X209 + X212 + X213 + X214 + X215 + X287
   >= 1
 R216: X72 + X144 + X216 + X217 + X218 + X219 + X222 + X225 + X234 + X252
   >= 1
 R217: X73 + X145 + X216 + X217 + X218 + X220 + X223 + X226 + X235 + X253
   >= 1
 R218: X74 + X146 + X216 + X217 + X218 + X221 + X224 + X227 + X236 + X254
   >= 1
 R219: X75 + X147 + X216 + X219 + X220 + X221 + X222 + X228 + X237 + X255
   >= 1
 R220: X76 + X148 + X217 + X219 + X220 + X221 + X223 + X229 + X238 + X256
   >= 1
 R221: X77 + X149 + X218 + X219 + X220 + X221 + X224 + X230 + X239 + X257
   >= 1
 R222: X78 + X150 + X216 + X219 + X222 + X223 + X224 + X231 + X240 + X258
   >= 1
 R223: X79 + X151 + X217 + X220 + X222 + X223 + X224 + X232 + X241 + X259
   >= 1
 R224: X80 + X152 + X218 + X221 + X222 + X223 + X224 + X233 + X242 + X260
   >= 1
 R225: X81 + X153 + X216 + X225 + X226 + X227 + X228 + X231 + X243 + X261
   >= 1
 R226: X82 + X154 + X217 + X225 + X226 + X227 + X229 + X232 + X244 + X262
   >= 1
 R227: X83 + X155 + X218 + X225 + X226 + X227 + X230 + X233 + X245 + X263
   >= 1
 R228: X84 + X156 + X219 + X225 + X228 + X229 + X230 + X231 + X246 + X264
   >= 1
 R229: X85 + X157 + X220 + X226 + X228 + X229 + X230 + X232 + X247 + X265
   >= 1
 R230: X86 + X158 + X221 + X227 + X228 + X229 + X230 + X233 + X248 + X266
   >= 1
 R231: X87 + X159 + X222 + X225 + X228 + X231 + X232 + X233 + X249 + X267
   >= 1
 R232: X88 + X160 + X223 + X226 + X229 + X231 + X232 + X233 + X250 + X268
   >= 1
 R233: X89 + X161 + X224 + X227 + X230 + X231 + X232 + X233 + X251 + X269
   >= 1
 R234: X90 + X162 + X216 + X234 + X235 + X236 + X237 + X240 + X243 + X270
   >= 1
 R235: X91 + X163 + X217 + X234 + X235 + X236 + X238 + X241 + X244 + X271
   >= 1
 R236: X92 + X164 + X218 + X234 + X235 + X236 + X239 + X242 + X245 + X272
   >= 1
 R237: X93 + X165 + X219 + X234 + X237 + X238 + X239 + X240 + X246 + X273
   >= 1
 R238: X94 + X166 + X220 + X235 + X237 + X238 + X239 + X241 + X247 + X274
   >= 1
 R239: X95 + X167 + X221 + X236 + X237 + X238 + X239 + X242 + X248 + X275
   >= 1
 R240: X96 + X168 + X222 + X234 + X237 + X240 + X241 + X242 + X249 + X276
   >= 1
 R241: X97 + X169 + X223 + X235 + X238 + X240 + X241 + X242 + X250 + X277
   >= 1
 R242: X98 + X170 + X224 + X236 + X239 + X240 + X241 + X242 + X251 + X278
   >= 1
 R243: X99 + X171 + X225 + X234 + X243 + X244 + X245 + X246 + X249 + X279
   >= 1
 R244: X100 + X172 + X226 + X235 + X243 + X244 + X245 + X247 + X250 + X280
   >= 1
 R245: X101 + X173 + X227 + X236 + X243 + X244 + X245 + X248 + X251 + X281
   >= 1
 R246: X102 + X174 + X228 + X237 + X243 + X246 + X247 + X248 + X249 + X282
   >= 1
 R247: X103 + X175 + X229 + X238 + X244 + X246 + X247 + X248 + X250 + X283
   >= 1
 R248: X104 + X176 + X230 + X239 + X245 + X246 + X247 + X248 + X251 + X284
   >= 1
 R249: X105 + X177 + X231 + X240 + X243 + X246 + X249 + X250 + X251 + X285
   >= 1
 R250: X106 + X178 + X232 + X241 + X244 + X247 + X249 + X250 + X251 + X286
   >= 1
 R251: X107 + X179 + X233 + X242 + X245 + X248 + X249 + X250 + X251 + X287
   >= 1
 R252: X108 + X180 + X216 + X252 + X253 + X254 + X255 + X258 + X261 + X270
   >= 1
 R253: X109 + X181 + X217 + X252 + X253 + X254 + X256 + X259 + X262 + X271
   >= 1
 R254: X110 + X182 + X218 + X252 + X253 + X254 + X257 + X260 + X263 + X272
   >= 1
 R255: X111 + X183 + X219 + X252 + X255 + X256 + X257 + X258 + X264 + X273
   >= 1
 R256: X112 + X184 + X220 + X253 + X255 + X256 + X257 + X259 + X265 + X274
   >= 1
 R257: X113 + X185 + X221 + X254 + X255 + X256 + X257 + X260 + X266 + X275
   >= 1
 R258: X114 + X186 + X222 + X252 + X255 + X258 + X259 + X260 + X267 + X276
   >= 1
 R259: X115 + X187 + X223 + X253 + X256 + X258 + X259 + X260 + X268 + X277
   >= 1
 R260: X116 + X188 + X224 + X254 + X257 + X258 + X259 + X260 + X269 + X278
   >= 1
 R261: X117 + X189 + X225 + X252 + X261 + X262 + X263 + X264 + X267 + X279
   >= 1
 R262: X118 + X190 + X226 + X253 + X261 + X262 + X263 + X265 + X268 + X280
   >= 1
 R263: X119 + X191 + X227 + X254 + X261 + X262 + X263 + X266 + X269 + X281
   >= 1
 R264: X120 + X192 + X228 + X255 + X261 + X264 + X265 + X266 + X267 + X282
   >= 1
 R265: X121 + X193 + X229 + X256 + X262 + X264 + X265 + X266 + X268 + X283
   >= 1
 R266: X122 + X194 + X230 + X257 + X263 + X264 + X265 + X266 + X269 + X284
   >= 1
 R267: X123 + X195 + X231 + X258 + X261 + X264 + X267 + X268 + X269 + X285
   >= 1
 R268: X124 + X196 + X232 + X259 + X262 + X265 + X267 + X268 + X269 + X286
   >= 1
 R269: X125 + X197 + X233 + X260 + X263 + X266 + X267 + X268 + X269 + X287
   >= 1
 R270: X126 + X198 + X234 + X252 + X270 + X271 + X272 + X273 + X276 + X279
   >= 1
 R271: X127 + X199 + X235 + X253 + X270 + X271 + X272 + X274 + X277 + X280
   >= 1
 R272: X128 + X200 + X236 + X254 + X270 + X271 + X272 + X275 + X278 + X281
   >= 1
 R273: X129 + X201 + X237 + X255 + X270 + X273 + X274 + X275 + X276 + X282
   >= 1
 R274: X130 + X202 + X238 + X256 + X271 + X273 + X274 + X275 + X277 + X283
   >= 1
 R275: X131 + X203 + X239 + X257 + X272 + X273 + X274 + X275 + X278 + X284
   >= 1
 R276: X132 + X204 + X240 + X258 + X270 + X273 + X276 + X277 + X278 + X285
   >= 1
 R277: X133 + X205 + X241 + X259 + X271 + X274 + X276 + X277 + X278 + X286
   >= 1
 R278: X134 + X206 + X242 + X260 + X272 + X275 + X276 + X277 + X278 + X287
   >= 1
 R279: X135 + X207 + X243 + X261 + X270 + X279 + X280 + X281 + X282 + X285
   >= 1
 R280: X136 + X208 + X244 + X262 + X271 + X279 + X280 + X281 + X283 + X286
   >= 1
 R281: X137 + X209 + X245 + X263 + X272 + X279 + X280 + X281 + X284 + X287
   >= 1
 R282: X138 + X210 + X246 + X264 + X273 + X279 + X282 + X283 + X284 + X285
   >= 1
 R283: X139 + X211 + X247 + X265 + X274 + X280 + X282 + X283 + X284 + X286
   >= 1
 R284: X140 + X212 + X248 + X266 + X275 + X281 + X282 + X283 + X284 + X287
   >= 1
 R285: X141 + X213 + X249 + X267 + X276 + X279 + X282 + X285 + X286 + X287
   >= 1
 R286: X142 + X214 + X250 + X268 + X277 + X280 + X283 + X285 + X286 + X287
   >= 1
 R287: X143 + X215 + X251 + X269 + X278 + X281 + X284 + X285 + X286 + X287
   >= 1
Bounds
 X0 <= 1
 X1 <= 1
 X2 <= 1
 X3 <= 1
 X4 <= 1
 X5 <= 1
 X6 <= 1
 X7 <= 1
 X8 <= 1
 X9 <= 1
 X10 <= 1
 X11 <= 1
 X12 <= 1
 X13 <= 1
 X14 <= 1
 X15 <= 1
 X16 <= 1
 X17 <= 1
 X18 <= 1
 X19 <= 1
 X20 <= 1
 X21 <= 1
 X22 <= 1
 X23 <= 1
 X24 <= 1
 X25 <= 1
 X26 <= 1
 X27 <= 1
 X28 <= 1
 X29 <= 1
 X30 <= 1
 X31 <= 1
 X32 <= 1
 X33 <= 1
 X34 <= 1
 X35 <= 1
 X36 <= 1
 X37 <= 1
 X38 <= 1
 X39 <= 1
 X40 <= 1
 X41 <= 1
 X42 <= 1
 X43 <= 1
 X44 <= 1
 X45 <= 1
 X46 <= 1
 X47 <= 1
 X48 <= 1
 X49 <= 1
 X50 <= 1
 X51 <= 1
 X52 <= 1
 X53 <= 1
 X54 <= 1
 X55 <= 1
 X56 <= 1
 X57 <= 1
 X58 <= 1
 X59 <= 1
 X60 <= 1
 X61 <= 1
 X62 <= 1
 X63 <= 1
 X64 <= 1
 X65 <= 1
 X66 <= 1
 X67 <= 1
 X68 <= 1
 X69 <= 1
 X70 <= 1
 X71 <= 1
 X72 <= 1
 X73 <= 1
 X74 <= 1
 X75 <= 1
 X76 <= 1
 X77 <= 1
 X78 <= 1
 X79 <= 1
 X80 <= 1
 X81 <= 1
 X82 <= 1
 X83 <= 1
 X84 <= 1
 X85 <= 1
 X86 <= 1
 X87 <= 1
 X88 <= 1
 X89 <= 1
 X90 <= 1
 X91 <= 1
 X92 <= 1
 X93 <= 1
 X94 <= 1
 X95 <= 1
 X96 <= 1
 X97 <= 1
 X98 <= 1
 X99 <= 1
 X100 <= 1
 X101 <= 1
 X102 <= 1
 X103 <= 1
 X104 <= 1
 X105 <= 1
 X106 <= 1
 X107 <= 1
 X108 <= 1
 X109 <= 1
 X110 <= 1
 X111 <= 1
 X112 <= 1
 X113 <= 1
 X114 <= 1
 X115 <= 1
 X116 <= 1
 X117 <= 1
 X118 <= 1
 X119 <= 1
 X120 <= 1
 X121 <= 1
 X122 <= 1
 X123 <= 1
 X124 <= 1
 X125 <= 1
 X126 <= 1
 X127 <= 1
 X128 <= 1
 X129 <= 1
 X130 <= 1
 X131 <= 1
 X132 <= 1
 X133 <= 1
 X134 <= 1
 X135 <= 1
 X136 <= 1
 X137 <= 1
 X138 <= 1
 X139 <= 1
 X140 <= 1
 X141 <= 1
 X142 <= 1
 X143 <= 1
 X144 <= 1
 X145 <= 1
 X146 <= 1
 X147 <= 1
 X148 <= 1
 X149 <= 1
 X150 <= 1
 X151 <= 1
 X152 <= 1
 X153 <= 1
 X154 <= 1
 X155 <= 1
 X156 <= 1
 X157 <= 1
 X158 <= 1
 X159 <= 1
 X160 <= 1
 X161 <= 1
 X162 <= 1
 X163 <= 1
 X164 <= 1
 X165 <= 1
 X166 <= 1
 X167 <= 1
 X168 <= 1
 X169 <= 1
 X170 <= 1
 X171 <= 1
 X172 <= 1
 X173 <= 1
 X174 <= 1
 X175 <= 1
 X176 <= 1
 X177 <= 1
 X178 <= 1
 X179 <= 1
 X180 <= 1
 X181 <= 1
 X182 <= 1
 X183 <= 1
 X184 <= 1
 X185 <= 1
 X186 <= 1
 X187 <= 1
 X188 <= 1
 X189 <= 1
 X190 <= 1
 X191 <= 1
 X192 <= 1
 X193 <= 1
 X194 <= 1
 X195 <= 1
 X196 <= 1
 X197 <= 1
 X198 <= 1
 X199 <= 1
 X200 <= 1
 X201 <= 1
 X202 <= 1
 X203 <= 1
 X204 <= 1
 X205 <= 1
 X206 <= 1
 X207 <= 1
 X208 <= 1
 X209 <= 1
 X210 <= 1
 X211 <= 1
 X212 <= 1
 X213 <= 1
 X214 <= 1
 X215 <= 1
 X216 <= 1
 X217 <= 1
 X218 <= 1
 X219 <= 1
 X220 <= 1
 X221 <= 1
 X222 <= 1
 X223 <= 1
 X224 <= 1
 X225 <= 1
 X226 <= 1
 X227 <= 1
 X228 <= 1
 X229 <= 1
 X230 <= 1
 X231 <= 1
 X232 <= 1
 X233 <= 1
 X234 <= 1
 X235 <= 1
 X236 <= 1
 X237 <= 1
 X238 <= 1
 X239 <= 1
 X240 <= 1
 X241 <= 1
 X242 <= 1
 X243 <= 1
 X244 <= 1
 X245 <= 1
 X246 <= 1
 X247 <= 1
 X248 <= 1
 X249 <= 1
 X250 <= 1
 X251 <= 1
 X252 <= 1
 X253 <= 1
 X254 <= 1
 X255 <= 1
 X256 <= 1
 X257 <= 1
 X258 <= 1
 X259 <= 1
 X260 <= 1
 X261 <= 1
 X262 <= 1
 X263 <= 1
 X264 <= 1
 X265 <= 1
 X266 <= 1
 X267 <= 1
 X268 <= 1
 X269 <= 1
 X270 <= 1
 X271 <= 1
 X272 <= 1
 X273 <= 1
 X274 <= 1
 X275 <= 1
 X276 <= 1
 X277 <= 1
 X278 <= 1
 X279 <= 1
 X280 <= 1
 X281 <= 1
 X282 <= 1
 X283 <= 1
 X284 <= 1
 X285 <= 1
 X286 <= 1
 X287 <= 1
End
